NAME: simple5
COMMENT: Simple 5-city test instance for validation
TYPE: TSP
DIMENSION: 5
EDGE_WEIGHT_TYPE: EXPLICIT
EDGE_WEIGHT_FORMAT: FULL_MATRIX
EDGE_WEIGHT_SECTION
 0 10 15 20 25
10  0 35 30 20
15 35  0 15 30
20 30 15  0 12
25 20 30 12  0
EOF